
Gurobi 11.0.3 (linux64) logging started Fri Apr 17 01:19:11 2026

Set parameter LogFile to value "tree/results/fish/fish_depth-4_run-3/Full MIP/LogFile_FullModel.txt"
Gurobi Optimizer version 11.0.3 build v11.0.3rc0 (linux64 - "CentOS Linux 7 (Core)")

CPU model: Intel(R) Xeon(R) Platinum 8260 CPU @ 2.40GHz, instruction set [SSE2|AVX|AVX2|AVX512]
Thread count: 96 physical cores, 192 logical processors, using up to 32 threads

Optimize a model with 636812 rows, 391978 columns and 3140052 nonzeros
Model fingerprint: 0x51a85cf6
Model has 48960 general constraints
Variable types: 244954 continuous, 147024 integer (147024 binary)
Coefficient statistics:
  Matrix range     [3e-04, 1e+04]
  Objective range  [3e-04, 1e+04]
  Bounds range     [1e+00, 3e+03]
  RHS range        [1e-04, 3e+03]

User MIP start produced solution with objective -50399.2 (2.01s)
Loaded user MIP start with objective -50399.2
Processed MIP start in 2.66 seconds (0.35 work units)

Presolve removed 195856 rows and 195840 columns (presolve time = 5s) ...
Presolve removed 195856 rows and 195840 columns (presolve time = 10s) ...
Presolve added 48944 rows and 195840 columns
Presolve time: 10.20s
Presolved: 685756 rows, 587818 columns, 3532980 nonzeros
Presolved model has 195840 SOS constraint(s)
Variable types: 244954 continuous, 342864 integer (342864 binary)

Deterministic concurrent LP optimizer: primal simplex, dual simplex, and barrier
Showing barrier log only...

Root relaxation presolved: 685756 rows, 587818 columns, 3532980 nonzeros

Root barrier log...

Ordering time: 0.36s

Barrier statistics:
 Dense cols : 60
 AA' NZ     : 3.697e+06
 Factor NZ  : 1.244e+07 (roughly 600 MB of memory)
 Factor Ops : 2.452e+08 (less than 1 second per iteration)
 Threads    : 30

                  Objective                Residual
Iter       Primal          Dual         Primal    Dual     Compl     Time
   0  -9.90354315e+04  4.70874578e+09  9.00e+03 5.68e-14  7.72e+05    22s
   1  -5.70242178e+04  7.95850510e+09  3.59e+03 2.03e+01  2.54e+05    24s
   2  -2.83568439e+04  7.88710277e+09  3.57e+02 5.33e+00  3.03e+04    25s
   3  -1.87462399e+04  4.55864932e+09  3.54e+01 6.38e-01  5.15e+03    27s
   4  -2.32457575e+03  7.07882892e+08  3.50e+00 6.37e-02  6.18e+02    28s
   5  -2.33490051e+02  8.49893189e+07  3.47e-01 6.36e-03  6.85e+01    29s
   6  -2.30135378e+01  8.77311008e+06  3.51e-02 6.36e-04  6.87e+00    30s
   7  -1.96528462e+00  8.84971027e+05  3.84e-03 6.42e-05  6.91e-01    31s
   8   1.45991245e-01  9.69922301e+04  6.33e-04 7.03e-06  7.57e-02    32s
   9   4.99293487e-01  1.85405294e+04  6.28e-05 1.34e-06  1.45e-02    33s
  10   9.50041966e-01  5.19142842e+03  2.65e-05 3.16e-07  4.05e-03    34s
  11   7.42702182e-01  5.83025136e+02  2.62e-06 3.50e-08  4.54e-04    36s
  12   9.74270224e-01  6.15448260e+01  2.63e-07 3.50e-09  4.72e-05    38s
  13   9.97426268e-01  7.10970998e+00  2.61e-08 3.50e-10  4.76e-06    39s
  14   9.99742627e-01  1.61097234e+00  2.61e-09 3.50e-11  4.76e-07    41s
  15   9.99974263e-01  1.06109724e+00  2.61e-10 3.50e-12  4.76e-08    43s
  16   9.99997426e-01  1.00610972e+00  2.59e-11 3.50e-13  4.76e-09    45s
  17   9.99999743e-01  1.00061097e+00  2.60e-12 3.50e-14  4.76e-10    47s
  18   9.99999974e-01  1.00006110e+00  4.62e-13 3.50e-15  4.76e-11    50s
  19   9.99999997e-01  1.00000611e+00  4.33e-13 3.50e-16  4.76e-12    51s
  20   1.00000000e+00  1.00000061e+00  4.26e-13 3.50e-17  4.76e-13    53s
  21   1.00000000e+00  1.00000006e+00  4.26e-13 3.50e-18  4.76e-14    54s
  22   1.00000000e+00  1.00000001e+00  4.41e-13 3.50e-19  4.76e-15    55s

Barrier solved model in 22 iterations and 54.82 seconds (27.37 work units)
Optimal objective 1.00000000e+00


Root crossover log...

   31336 DPushes remaining with DInf 0.0000000e+00                56s
       0 DPushes remaining with DInf 0.0000000e+00                56s

  228713 PPushes remaining with PInf 0.0000000e+00                56s
       0 PPushes remaining with PInf 0.0000000e+00                59s

  Push phase complete: Pinf 0.0000000e+00, Dinf 0.0000000e+00     59s


Root simplex log...

Iteration    Objective       Primal Inf.    Dual Inf.      Time
  228717    1.0000000e+00   0.000000e+00   0.000000e+00     59s
  228717    1.0000000e+00   0.000000e+00   0.000000e+00     60s
Concurrent spin time: 20.13s (can be avoided by choosing Method=3)

Solved with barrier

Root relaxation: objective 1.000000e+00, 228717 iterations, 43.44 seconds (18.91 work units)
Total elapsed time = 143.76s (DegenMoves)
Total elapsed time = 145.21s (DegenMoves)

    Nodes    |    Current Node    |     Objective Bounds      |     Work
 Expl Unexpl |  Obj  Depth IntInf | Incumbent    BestBd   Gap | It/Node Time

     0     0    1.00000    0 43180 -50399.216    1.00000   100%     -  145s
     0     2    1.00000    0 43180 -50399.216    1.00000   100%     - 1336s
     1     4    1.00000    1 47026 -50399.216    1.00000   100% 17306 2031s
     3     8    1.00000    2 47029 -50399.216    1.00000   100%  5774 2366s
     7    16    1.00000    3 47028 -50399.216    1.00000   100%  2479 2370s
    15    32    1.00000    4 47027 -50399.216    1.00000   100%  1161 2375s
    31    64    1.00000    5 47026 -50399.216    1.00000   100%   572 3295s
    63    92    1.00000    6 47026 -50399.216    1.00000   100%   296 3600s

Explored 91 nodes (280701 simplex iterations) in 3601.09 seconds (3157.49 work units)
Thread count was 32 (of 192 available processors)

Solution count 1: -50399.2 

Time limit reached
Best objective -5.039921568627e+04, best bound 1.000000000000e+00, gap 100.0020%

User-callback calls 687356, time in user-callback 5.11 sec
